p wcnf 190 76 1
1 -1 10 
1 -2 11 
1 -3 12 
1 -4 13 
1 -5 14 
1 -6 15 
1 -7 16 
1 -8 17 
1 -9 18 
1 -19 1 
1 -20 1 
1 -21 1 
1 -22 1 
1 -23 1 
1 -24 1 
1 -25 1 
1 -26 1 
1 -27 1 
1 -19 28 
1 -19 29 
1 -19 30 
1 -19 31 
1 -19 32 
1 -19 33 
1 -19 34 
1 -19 35 
1 -20 29 
1 -20 30 
1 -20 31 
1 -20 32 
1 -20 33 
1 -20 34 
1 -20 35 
1 -20 36 
1 -21 30 
1 -21 31 
1 -21 32 
1 -21 33 
1 -21 34 
1 -21 35 
1 -21 36 
1 -21 37 
1 -22 31 
1 -22 32 
1 -22 33 
1 -22 34 
1 -22 35 
1 -22 36 
1 -22 37 
1 -22 38 
1 -23 32 
1 -23 33 
1 -23 34 
1 -23 35 
1 -23 36 
1 -23 37 
1 -23 38 
1 -23 39 
1 -24 33 
1 -24 34 
1 -24 35 
1 -24 36 
1 -24 37 
1 -24 38 
1 -24 39 
1 -24 40 
1 -25 34 
1 -25 35 
1 -25 36 
1 -25 37 
1 -25 38 
1 -25 39 
1 -25 40 
1 -25 41 
1 -26 35 
1 -26 36 
1 -26 37 
1 -26 38 
1 -26 39 
1 -26 40 
1 -26 41 
1 -26 42 
1 -27 36 
1 -27 37 
1 -27 38 
1 -27 39 
1 -27 40 
1 -27 41 
1 -27 42 
1 -27 43 
1 -44 1 
1 -45 1 
1 -46 1 
1 -47 1 
1 -48 1 
1 -49 1 
1 -50 1 
1 -51 1 
1 -52 1 
1 -44 53 
1 -44 54 
1 -44 55 
1 -44 56 
1 -44 57 
1 -44 58 
1 -44 59 
1 -44 60 
1 -44 61 
1 -45 54 
1 -45 55 
1 -45 56 
1 -45 57 
1 -45 58 
1 -45 59 
1 -45 60 
1 -45 61 
1 -45 62 
1 -46 55 
1 -46 56 
1 -46 57 
1 -46 58 
1 -46 59 
1 -46 60 
1 -46 61 
1 -46 62 
1 -46 63 
1 -47 56 
1 -47 57 
1 -47 58 
1 -47 59 
1 -47 60 
1 -47 61 
1 -47 62 
1 -47 63 
1 -47 64 
1 -48 57 
1 -48 58 
1 -48 59 
1 -48 60 
1 -48 61 
1 -48 62 
1 -48 63 
1 -48 64 
1 -48 65 
1 -49 58 
1 -49 59 
1 -49 60 
1 -49 61 
1 -49 62 
1 -49 63 
1 -49 64 
1 -49 65 
1 -49 66 
1 -50 59 
1 -50 60 
1 -50 61 
1 -50 62 
1 -50 63 
1 -50 64 
1 -50 65 
1 -50 66 
1 -50 67 
1 -51 60 
1 -51 61 
1 -51 62 
1 -51 63 
1 -51 64 
1 -51 65 
1 -51 66 
1 -51 67 
1 -51 68 
1 -52 61 
1 -52 62 
1 -52 63 
1 -52 64 
1 -52 65 
1 -52 66 
1 -52 67 
1 -52 68 
1 -52 69 
1 -70 19 
1 -71 19 
1 -70 72 
1 -70 73 
1 -71 73 
1 -71 74 
1 -75 44 70 
1 -75 76 
1 19 20 21 22 23 24 25 26 27 44 45 46 47 48 49 50 51 52 
1 19 20 21 22 23 24 25 26 27 44 45 46 47 48 49 50 51 52 70 71 
1 76 
